
List of user-set options:

                                    Name   Value                used
                           compl_inf_tol = 1                     yes
                         constr_viol_tol = 1                     yes
                            dual_inf_tol = 1000                  yes
                           linear_solver = ma97                  yes
                              ma86_small = 1e-30                  no
                                  ma86_u = 0.0001                 no
                              ma97_order = best                  yes
                              ma97_small = 1e-30                 yes
                            ma97_switch1 = at_start              yes
                            ma97_switch2 = od_hd_reuse           yes
                                  ma97_u = 1e-06                 yes
                               ma97_umax = 0.5                   yes
                                max_iter = 1000                  yes
                    max_refinement_steps = 20                    yes
                    min_refinement_steps = 5                     yes
                                 mu_init = 1e-06                 yes
           mu_superlinear_decrease_power = 1.25                  yes
                   nlp_scaling_min_value = 1e-08                 yes
                        option_file_name = Preset_Case:_686_NCP.opt  yes
                             output_file = ./tmp/Preset_Case:_686_NCP.output  yes
                      print_user_options = yes                   yes
        required_infeasibility_reduction = 1                      no
                                     tol = 1e-08                 yes
                   warm_start_bound_frac = 1e-20                 yes
                   warm_start_bound_push = 1e-20                 yes
                   warm_start_init_point = yes                   yes
              warm_start_mult_bound_push = 1e-20                 yes
                warm_start_mult_init_max = 1e+40                 yes
             warm_start_slack_bound_frac = 1e-20                 yes
             warm_start_slack_bound_push = 1e-20                 yes

******************************************************************************
This program contains Ipopt, a library for large-scale nonlinear optimization.
 Ipopt is released as open source code under the Eclipse Public License (EPL).
         For more information visit http://projects.coin-or.org/Ipopt
******************************************************************************

This is Ipopt version 3.12.10, running with linear solver ma97.

Number of nonzeros in equality constraint Jacobian...:   117167
Number of nonzeros in inequality constraint Jacobian.:      213
Number of nonzeros in Lagrangian Hessian.............:    47513

Total number of variables............................:    29977
                     variables with only lower bounds:    11312
                variables with lower and upper bounds:    15135
                     variables with only upper bounds:        0
Total number of equality constraints.................:    29864
Total number of inequality constraints...............:       25
        inequality constraints with only lower bounds:        4
   inequality constraints with lower and upper bounds:        0
        inequality constraints with only upper bounds:       21

iter    objective    inf_pr   inf_du lg(mu)  ||d||  lg(rg) alpha_du alpha_pr  ls
   0 -1.7469394e-01 2.25e-01 2.00e+00  -6.0 0.00e+00    -  0.00e+00 0.00e+00   0
In iteration 0, 8 Slacks too small, adjusting variable bounds
   1 -1.7469394e-01 2.25e-01 1.04e+03  -6.0 1.13e+10    -  1.04e-13 1.55e-18h  1
   2 -1.7469330e-01 2.25e-01 1.03e+03  -6.0 1.37e+02    -  1.00e-02 1.02e-05f  1
   3 -1.7468419e-01 2.24e-01 1.03e+03  -6.0 1.12e+02    -  1.84e-02 1.70e-04h  1
   4 -1.7418468e-01 2.22e-01 9.81e+02  -6.0 4.11e+02    -  1.26e-01 9.40e-03h  3
   5 -1.7362665e-01 2.20e-01 9.52e+02  -6.0 1.20e+02    -  8.18e-02 1.09e-02h  4
   6 -1.7319750e-01 2.18e-01 8.99e+02  -6.0 1.23e+02    -  1.83e-01 8.28e-03h  5
   7 -1.7278428e-01 2.16e-01 8.68e+02  -6.0 1.47e+02    -  1.09e-01 7.61e-03h  6
   8 -1.7222061e-01 2.14e-01 8.49e+02  -6.0 2.07e+02    -  5.16e-02 1.01e-02h  6
   9 -1.7167589e-01 2.12e-01 7.82e+02  -6.0 2.04e+02    -  2.66e-01 9.77e-03h  6
iter    objective    inf_pr   inf_du lg(mu)  ||d||  lg(rg) alpha_du alpha_pr  ls
  10 -1.7110309e-01 2.10e-01 7.71e+02  -6.0 2.09e+02    -  2.77e-02 9.82e-03h  6
  11 -1.7052478e-01 2.08e-01 7.58e+02  -6.0 2.09e+02    -  3.69e-02 9.96e-03h  6
  12 -1.6993858e-01 2.06e-01 7.01e+02  -6.0 1.91e+02    -  2.60e-01 1.00e-02h  6
  13 -1.6955467e-01 2.05e-01 6.36e+02  -6.0 2.17e+02    -  3.83e-01 6.42e-03h  7
  14 -1.5939534e-01 3.98e-01 1.45e+03  -6.0 2.38e+02    -  2.27e-01 1.61e-01w  1
  15 -1.4826361e-01 7.65e-01 1.96e+03  -6.0 2.15e+02    -  1.53e-01 2.06e-01w  1
  16 -1.4712412e-01 7.54e-01 1.93e+03  -6.0 1.82e+02    -  1.02e-01 1.71e-02w  1
  17 -1.6891971e-01 2.03e-01 6.07e+02  -6.0 1.92e+02    -  2.27e-01 1.01e-02h  4
  18 -1.6849483e-01 2.01e-01 5.94e+02  -6.0 2.55e+02    -  1.19e-01 6.64e-03h  5
  19 -1.6809170e-01 2.00e-01 5.80e+02  -6.0 2.63e+02    -  1.28e-01 6.27e-03h  5
iter    objective    inf_pr   inf_du lg(mu)  ||d||  lg(rg) alpha_du alpha_pr  ls
  20 -1.6667555e-01 1.98e-01 5.70e+02  -6.0 3.41e+02    -  4.74e-02 1.14e-02h  2
  21 -1.6584417e-01 1.95e-01 5.47e+02  -6.0 2.73e+02    -  1.81e-01 1.25e-02h  4
  22 -1.6497809e-01 1.93e-01 5.35e+02  -6.0 2.90e+02    -  7.32e-02 1.19e-02h  3
  23 -1.6401288e-01 1.90e-01 4.94e+02  -6.0 2.95e+02    -  3.38e-01 1.25e-02h  2
  24 -1.6314191e-01 1.88e-01 4.83e+02  -6.0 3.33e+02    -  6.98e-02 1.08e-02h  2
  25 -1.6257092e-01 1.87e-01 4.44e+02  -6.0 3.38e+02    -  3.36e-01 7.18e-03h  4
  26 -1.6180609e-01 1.85e-01 7.51e+02  -6.0 3.85e+02    -  9.82e-02 9.46e-03h  4
  27 -1.5551408e-01 1.71e-01 3.71e+03  -6.0 3.94e+02    -  3.96e-01 7.88e-02w  1
  28 -1.3964370e-01 8.51e-01 2.69e+03  -6.0 4.84e+02    -  2.93e-01 2.94e-01w  1
  29 -1.4396248e-01 8.22e+00 2.83e+04  -6.0 4.70e+03    -  6.88e-04 2.58e-02w  1
iter    objective    inf_pr   inf_du lg(mu)  ||d||  lg(rg) alpha_du alpha_pr  ls
  30 -1.6101959e-01 1.83e-01 4.40e+03  -6.0 4.96e+01  -2.0 3.96e-01 9.86e-03h  3
  31 -1.6008834e-01 1.81e-01 1.14e+04  -6.0 5.16e+02    -  2.12e-01 1.41e-02h  4
  32 -1.5952977e-01 1.79e-01 2.86e+04  -6.0 7.32e+02    -  3.65e-01 1.24e-02h  5
  33 -1.5930020e-01 1.77e-01 2.69e+04  -6.0 3.28e+01  -2.5 1.96e-02 6.83e-03h  2
  34 -1.5895119e-01 1.76e-01 2.67e+04  -6.0 3.75e+01  -3.0 1.28e-02 9.37e-03h  5
  35 -1.5853550e-01 1.74e-01 3.59e+04  -6.0 5.06e+01  -3.4 2.73e-01 9.12e-03h  6
  36 -1.5740410e-01 1.71e-01 5.59e+04  -6.0 6.73e+01  -3.9 3.32e-01 1.88e-02h  1
  37 -1.5711356e-01 1.70e-01 8.72e+04  -6.0 1.09e+02  -4.4 4.03e-01 4.73e-03h  1
  38 -1.5696075e-01 1.69e-01 8.83e+04  -6.0 3.74e+02  -4.9 1.44e-01 3.72e-03h  7
  39 -1.5649827e-01 1.68e-01 1.12e+05  -6.0 1.37e+02  -4.4 3.79e-01 8.78e-03h  7
iter    objective    inf_pr   inf_du lg(mu)  ||d||  lg(rg) alpha_du alpha_pr  ls
  40 -1.5643119e-01 1.67e-01 1.07e+05  -6.0 6.34e+02  -4.9 7.72e-02 3.54e-03h  7
  41 -1.5606150e-01 1.66e-01 1.25e+05  -6.0 1.52e+02  -4.5 3.22e-01 7.45e-03h  7
  42 -1.5619376e-01 1.66e-01 1.18e+05  -6.0 1.59e+03  -5.0 2.61e-02 2.66e-03h  5
  43 -1.5588922e-01 1.65e-01 1.42e+05  -6.0 1.71e+02  -4.5 5.08e-01 6.48e-03h  7
  44 -1.5538834e-01 1.63e-01 1.83e+05  -6.0 9.14e+01  -4.1 5.79e-01 1.04e-02h  7
  45 -1.5517240e-01 1.62e-01 1.84e+05  -6.0 2.27e+02  -4.6 2.79e-01 5.17e-03h  7
  46 -1.5462703e-01 1.60e-01 2.28e+05  -6.0 1.05e+02  -4.2 6.71e-01 1.15e-02h  7
  47 -1.5447237e-01 1.59e-01 2.19e+05  -6.0 2.98e+02  -4.6 2.31e-01 4.40e-03h  7
  48 -1.1855679e-01 1.17e+01 5.43e+04  -6.0 1.22e+02  -4.2 8.52e-01 7.83e-01w  1
  49 -1.1800577e-01 1.10e+01 1.58e+05  -6.0 2.00e+02  -4.7 2.19e-01 6.13e-02w  1
iter    objective    inf_pr   inf_du lg(mu)  ||d||  lg(rg) alpha_du alpha_pr  ls
  50 -1.1786736e-01 1.01e+01 7.33e+04  -6.0 3.55e+02  -4.3 8.28e-08 2.28e-02w  1
  51 -1.5419178e-01 1.58e-01 2.73e+05  -6.0 1.48e+02  -4.7 8.52e-01 6.12e-03h  7
  52 -1.5379967e-01 1.57e-01 2.78e+05  -6.0 1.60e+02  -4.3 2.13e-01 8.94e-03h  7
  53 -1.5378450e-01 1.57e-01 2.61e+05  -6.0 6.52e+02  -4.8 8.92e-02 1.47e-03h  8
  54 -1.5346980e-01 1.56e-01 2.91e+05  -6.0 1.77e+02  -4.4 9.08e-01 7.42e-03h  7
  55 -1.5349592e-01 1.55e-01 2.75e+05  -6.0 9.89e+02  -4.8 5.31e-02 2.39e-03h  7
  56 -1.5324295e-01 1.54e-01 2.79e+05  -6.0 2.11e+02  -4.4 1.92e-01 6.13e-03h  7
  57 -1.5334970e-01 1.54e-01 2.60e+05  -6.0 1.73e+03  -4.9 3.41e-02 1.69e-03h  7
  58 -1.5313219e-01 1.53e-01 2.76e+05  -6.0 2.37e+02  -4.5 8.05e-01 5.46e-03h  7
  59 -1.5343404e-01 1.53e-01 2.59e+05  -6.0 8.55e+03  -4.9 5.98e-03 5.59e-04h  5
iter    objective    inf_pr   inf_du lg(mu)  ||d||  lg(rg) alpha_du alpha_pr  ls
  60 -1.5323208e-01 1.52e-01 2.60e+05  -6.0 2.81e+02  -4.5 1.29e-01 5.08e-03h  7
  61 -1.2999125e-01 3.28e+00 1.77e+05  -6.0 1.23e+02  -4.1 1.00e+00 4.97e-01w  1
  62 -1.2275920e-01 9.57e+00 7.01e+04  -6.0 6.04e+01  -4.6 4.03e-01 3.39e-01w  1
  63 -1.2260395e-01 8.08e+00 5.24e+04  -6.0 3.87e+02  -5.1 1.77e-01 1.59e-01w  1
  64 -1.5250580e-01 1.50e-01 3.44e+05  -6.0 9.80e+01  -4.6 1.00e+00 1.55e-02h  5
  65 -1.5205604e-01 1.49e-01 3.46e+05  -6.0 1.58e+02  -4.2 1.77e-01 9.84e-03h  7
  66 -1.5198411e-01 1.48e-01 3.16e+05  -6.0 5.07e+02  -4.7 1.68e-01 2.99e-03h  7
  67 -1.5158643e-01 1.47e-01 3.51e+05  -6.0 1.70e+02  -4.2 9.34e-01 8.75e-03h  7
  68 -1.5154482e-01 1.46e-01 3.24e+05  -6.0 6.52e+02  -4.7 1.20e-01 2.72e-03h  7
  69 -1.5116651e-01 1.45e-01 3.62e+05  -6.0 1.92e+02  -4.3 1.00e+00 8.35e-03h  7
iter    objective    inf_pr   inf_du lg(mu)  ||d||  lg(rg) alpha_du alpha_pr  ls
  70 -1.5116738e-01 1.45e-01 3.33e+05  -6.0 8.81e+02  -4.8 8.47e-02 2.50e-03h  7
  71 -1.5076085e-01 1.43e-01 3.65e+05  -6.0 2.13e+02  -4.4 1.00e+00 9.13e-03h  7
  72 -1.5083759e-01 1.43e-01 3.35e+05  -6.0 1.37e+03  -4.8 5.30e-02 2.25e-03h  7
  73 -1.5043774e-01 1.42e-01 3.41e+05  -6.0 2.33e+02  -4.4 3.16e-01 9.23e-03h  7
  74 -1.5535966e-01 3.82e+00 3.56e+05  -6.0 4.40e+03  -4.9 1.01e-02 1.98e-02w  1
  75 -1.5144584e-01 3.42e+00 2.60e+05  -6.0 8.43e+01  -3.6 5.68e-01 1.01e-01w  1
  76 -1.4099808e-01 2.35e+00 1.81e+05  -6.0 1.36e+02  -4.0 4.01e-01 2.58e-01w  1
  77 -1.5059155e-01 1.42e-01 3.19e+05  -6.0 4.22e+02  -4.5 1.01e-02 6.17e-04h  5
  78 -1.4966062e-01 1.39e-01 3.65e+05  -6.0 1.34e+02  -4.1 7.97e-01 2.02e-02h  6
  79 -1.4933818e-01 1.38e-01 3.47e+05  -6.0 3.47e+02  -4.6 1.75e-01 8.94e-03h  6
iter    objective    inf_pr   inf_du lg(mu)  ||d||  lg(rg) alpha_du alpha_pr  ls
  80 -1.4815062e-01 1.34e-01 3.71e+05  -6.0 1.40e+02  -4.1 1.00e+00 2.54e-02h  6
  81 -1.4776188e-01 1.32e-01 3.49e+05  -6.0 3.95e+02  -4.6 1.04e-01 1.24e-02h  5
  82 -1.4659906e-01 1.29e-01 3.37e+05  -6.0 1.46e+02  -4.2 1.00e+00 2.55e-02h  6
  83 -1.4601890e-01 1.27e-01 3.15e+05  -6.0 4.30e+02  -4.7 8.36e-02 1.99e-02h  4
  84 -1.4507201e-01 1.24e-01 2.76e+05  -6.0 1.46e+02  -4.2 1.00e+00 2.09e-02h  6
  85 -1.4471163e-01 1.23e-01 2.51e+05  -6.0 4.11e+02  -4.7 1.14e-01 1.09e-02h  5
  86 -1.4420363e-01 1.21e-01 2.70e+05  -6.0 1.34e+02  -4.3 1.00e+00 1.05e-02h  7
  87 -1.4300889e-01 1.38e+00 2.37e+05  -6.0 6.15e+02  -4.8 1.13e-01 1.05e-01w  1
  88 -1.2136372e-01 4.76e+00 5.35e+04  -6.0 1.22e+02  -4.3 1.00e+00 4.96e-01w  1
  89 -1.1312189e-01 2.05e+00 1.21e+05  -6.0 1.79e+02  -4.8 3.53e-01 5.63e-01w  1
iter    objective    inf_pr   inf_du lg(mu)  ||d||  lg(rg) alpha_du alpha_pr  ls
  90 -1.4412896e-01 1.20e-01 2.06e+05  -6.0 4.05e+01  -4.4 1.13e-01 6.56e-03h  4
  91 -1.4329007e-01 1.18e-01 1.90e+05  -6.0 8.15e+01  -4.0 6.87e-01 1.83e-02h  6
  92 -1.4318398e-01 1.18e-01 1.34e+05  -6.0 2.50e+02  -4.4 1.11e-01 3.48e-03h  6
  93 -1.4210389e-01 1.15e-01 1.70e+05  -6.0 8.03e+01  -4.0 4.07e-01 2.15e-02h  6
  94 -1.4118176e-01 1.13e-01 8.93e+04  -6.0 5.51e+01  -3.6 6.67e-01 2.23e-02h  6
  95 -1.4044246e-01 1.11e-01 2.08e+05  -6.0 7.45e+01  -4.1 5.28e-01 1.38e-02h  6
  96 -1.3958657e-01 1.09e-01 4.08e+04  -6.0 5.28e+01  -3.6 8.59e-01 2.16e-02h  6
  97 -1.3823823e-01 1.05e-01 9.12e+04  -6.0 4.04e+01  -3.2 5.55e-01 3.77e-02h  5
  98 -1.3833764e-01 1.05e-01 9.12e+04  -6.0 3.97e+02  -2.8 9.32e-04 6.34e-04h  4
  99 -1.3773236e-01 9.97e-02 8.64e+04  -6.0 3.47e+01  -2.4 4.83e-02 4.76e-02h  1
iter    objective    inf_pr   inf_du lg(mu)  ||d||  lg(rg) alpha_du alpha_pr  ls
 100r-1.3773236e-01 9.97e-02 9.99e+02  -1.0 0.00e+00  -2.8 0.00e+00 3.30e-07R  5
 101r-1.3754286e-01 9.79e-02 9.99e+02  -1.0 5.44e+03    -  4.27e-05 2.29e-05f  1
 102 -1.3784525e-01 9.79e-02 3.02e+02  -6.0 1.23e+05    -  2.45e-05 7.23e-05h  1
 103 -1.3845419e-01 9.79e-02 3.02e+02  -6.0 1.32e+05    -  8.36e-05 1.44e-04f  2
 104 -1.3884050e-01 9.79e-02 6.44e+02  -6.0 1.25e+05    -  2.82e-04 9.17e-05h  1
 105 -1.3926506e-01 9.79e-02 8.09e+02  -6.0 9.61e+04    -  7.98e-05 1.18e-04f  6
 106 -1.3985404e-01 9.79e-02 2.11e+04  -6.0 1.11e+05    -  1.45e-03 1.53e-04h  3
 107 -1.4003856e-01 9.79e-02 2.95e+04  -6.0 9.64e+04    -  4.46e-04 5.13e-05h  7
 108 -1.4021853e-01 9.79e-02 8.41e+04  -6.0 9.47e+04    -  2.93e-03 5.08e-05h  7
 109 -1.4041306e-01 9.79e-02 1.03e+05  -6.0 7.88e+04    -  9.27e-04 6.15e-05h  7
iter    objective    inf_pr   inf_du lg(mu)  ||d||  lg(rg) alpha_du alpha_pr  ls
 110 -1.5308443e-01 1.07e+00 2.08e+05  -6.0 8.02e+04    -  9.14e-03 4.18e-03h  1
 111 -1.6145050e-01 3.16e+00 3.81e+05  -6.0 8.32e+04    -  8.90e-03 4.86e-03h  1
 112 -1.6982035e-01 5.26e+00 4.88e+05  -6.0 9.73e+04    -  4.94e-03 5.72e-03h  1
 113 -1.7847165e-01 6.41e+00 5.76e+05  -6.0 1.43e+05    -  1.41e-02 6.87e-03h  1
 114 -1.7831556e-01 6.38e+00 5.80e+07  -6.0 4.42e+01  -3.3 7.49e-05 4.31e-03h  1
 115 -1.7595962e-01 6.02e+00 5.47e+07  -6.0 6.42e+01  -3.8 4.35e-03 5.67e-02h  1
 116 -1.7594947e-01 6.02e+00 5.47e+07  -6.0 4.39e+01  -3.4 4.18e-03 3.54e-04h  1
 117 -1.6950648e-01 4.80e+00 4.32e+07  -6.0 3.84e+01  -2.9 4.16e-03 2.10e-01h  1
 118 -1.6942525e-01 4.79e+00 4.30e+07  -6.0 2.27e+01  -2.5 4.93e-02 3.54e-03h  1
 119 -1.5797133e-01 2.72e+00 2.44e+07  -6.0 3.00e+01  -3.0 4.25e-03 4.32e-01h  1
iter    objective    inf_pr   inf_du lg(mu)  ||d||  lg(rg) alpha_du alpha_pr  ls
 120 -1.4852777e-01 1.13e+00 8.18e+06  -6.0 1.94e+01  -3.5 5.83e-01 6.65e-01h  1
 121 -1.4697727e-01 8.52e-01 6.14e+06  -6.0 9.91e+00  -3.9 1.00e+00 2.50e-01h  3
 122 -1.4315360e-01 2.29e-01 9.71e+02  -6.0 9.07e+00  -4.4 9.40e-01 1.00e+00h  1
 123 -1.4355043e-01 1.98e-01 8.18e+02  -6.0 5.99e+00  -4.9 8.36e-01 1.57e-01h  1
 124 -1.4400126e-01 2.41e-01 8.00e+02  -6.0 1.81e+02  -5.4 5.29e-02 2.28e-02h  1
 125 -1.4457274e-01 2.38e-01 7.54e+02  -6.0 3.65e+01  -5.9 2.09e-01 5.73e-02h  1
 126 -1.4875422e-01 3.97e-01 9.15e+01  -6.0 1.30e+01  -5.4 5.35e-01 8.57e-01h  1
 127 -1.5836743e-01 3.93e+00 4.06e+01  -6.0 2.88e+01  -5.9 5.50e-01 9.05e-01H  1
 128 -1.6301228e-01 6.60e+00 3.76e+01  -6.0 1.34e+02  -6.4 2.21e-01 1.32e-01h  2
 129 -1.6539256e-01 6.91e+00 3.75e+01  -6.0 4.32e+01  -6.0 4.24e-01 1.92e-01h  1
iter    objective    inf_pr   inf_du lg(mu)  ||d||  lg(rg) alpha_du alpha_pr  ls
 130 -1.7722099e-01 7.65e+00 1.16e+02  -6.0 2.16e+02  -6.4 2.93e-01 2.66e-01h  1
 131 -1.7961650e-01 7.19e+00 1.09e+02  -6.0 4.20e+02  -6.9 8.60e-02 6.26e-02h  1
 132 -1.8032442e-01 6.25e+00 9.48e+01  -6.0 2.89e+01  -5.6 1.62e-01 1.32e-01h  1
 133 -1.8230525e-01 3.69e+00 5.36e+01  -6.0 3.99e+01  -6.1 2.84e-01 4.36e-01h  1
 134 -1.8644189e-01 2.52e+00 3.09e+01  -6.0 8.98e+01  -6.5 9.91e-01 4.50e-01h  1
 135 -1.8877900e-01 2.32e+00 2.72e+01  -6.0 1.89e+02  -7.0 1.59e-01 1.34e-01h  1
 136 -1.9236837e-01 1.98e+00 2.84e+01  -6.0 3.18e+02  -7.5 1.00e+00 1.63e-01h  1
 137 -2.0696070e-01 2.94e+00 7.62e+01  -6.0 4.77e+02  -8.0 4.43e-01 5.17e-01h  1
 138 -2.0886544e-01 2.63e+00 3.70e+01  -6.0 2.63e+02  -7.5 8.77e-01 2.15e-01h  1
 139 -2.1253298e-01 6.99e+00 2.40e+02  -6.0 2.06e+03  -8.0 2.61e-01 1.21e-01h  1
iter    objective    inf_pr   inf_du lg(mu)  ||d||  lg(rg) alpha_du alpha_pr  ls
 140 -2.2011896e-01 2.46e+01 2.25e+02  -6.0 2.43e+03  -8.5 6.02e-02 1.72e-01h  1
 141 -2.2011998e-01 2.46e+01 2.25e+02  -6.0 2.41e+02  -7.2 3.18e-04 2.84e-04h  1
 142 -2.2012028e-01 2.46e+01 2.25e+02  -6.0 4.77e+02  -7.6 5.72e-05 5.43e-05h  1
 143 -2.2012042e-01 2.46e+01 2.25e+02  -6.0 1.92e+02  -7.2 2.55e-04 5.87e-05h  1
 144 -2.2006949e-01 2.45e+01 2.20e+02  -6.0 1.94e+03  -7.7 2.09e-02 1.44e-02f  1
 145 -2.2347184e-01 1.81e+01 1.34e+02  -6.0 4.73e+02  -8.2 4.05e-01 2.46e-01h  1
 146 -2.2813111e-01 1.38e+01 8.46e+01  -6.0 8.59e+02  -8.6 3.61e-01 2.36e-01h  1
 147 -2.3461120e-01 7.43e+00 1.00e+02  -6.0 6.33e+02  -8.2 5.10e-02 6.13e-01h  1
 148 -2.3510173e-01 6.55e+00 5.52e+01  -6.0 5.21e+02  -8.7 4.65e-01 1.18e-01h  1
 149 -2.3650741e-01 3.21e+00 1.82e+01  -6.0 2.19e+02  -8.3 6.66e-01 5.25e-01h  1
iter    objective    inf_pr   inf_du lg(mu)  ||d||  lg(rg) alpha_du alpha_pr  ls
 150 -2.3815204e-01 2.15e+00 6.68e+01  -6.0 5.10e+02  -8.7 8.29e-02 3.58e-01h  1
 151 -2.3876732e-01 1.17e+00 2.85e+01  -6.0 1.90e+02  -8.3 6.85e-01 4.94e-01h  1
 152 -2.3885346e-01 1.15e+00 1.17e+02  -6.0 5.11e+02  -8.8 8.41e-01 2.00e-02h  1
 153 -2.3966166e-01 5.52e-01 4.52e+01  -6.0 2.06e+02  -8.4 6.15e-01 6.30e-01h  1
 154 -2.4238945e-01 3.88e+00 2.28e+01  -6.0 5.05e+02  -8.9 4.30e-01 1.00e+00h  1
 155 -2.4285059e-01 1.26e+00 1.73e+01  -6.0 1.77e+02  -8.4 2.46e-01 7.30e-01h  1
 156 -2.4459376e-01 4.33e+00 1.34e+01  -6.0 4.52e+02  -8.9 6.07e-01 1.00e+00h  1
 157 -2.4493081e-01 4.43e-01 2.36e+01  -6.0 1.51e+02  -8.5 2.40e-01 1.00e+00h  1
 158 -2.4613862e-01 4.61e+00 2.79e+00  -6.0 4.75e+02  -9.0 1.00e+00 9.95e-01h  1
 159 -2.4632236e-01 4.73e-01 2.32e+01  -6.0 1.58e+02  -8.5 9.69e-01 1.00e+00h  1
iter    objective    inf_pr   inf_du lg(mu)  ||d||  lg(rg) alpha_du alpha_pr  ls
 160 -2.4717214e-01 4.56e+00 1.88e+00  -6.0 4.79e+02  -9.0 1.00e+00 1.00e+00h  1
 161 -2.4750303e-01 6.60e+00 9.33e+00  -6.0 2.84e+03  -9.5 1.09e-01 1.30e-01h  1
 162 -2.4767275e-01 4.90e+00 2.03e+02  -6.0 4.25e+02  -9.1 2.34e-01 3.04e-01h  1
 163 -2.4775465e-01 4.67e+00 1.79e+02  -6.0 2.12e+03  -9.5 1.49e-01 1.29e-01h  1
 164 -2.4817615e-01 1.25e+00 1.91e+01  -6.0 5.40e+02  -9.1 7.16e-01 1.00e+00h  1
 165 -2.4841447e-01 9.05e-01 7.68e+00  -6.0 2.22e+02  -8.7 5.41e-01 1.00e+00h  1
 166 -2.4895628e-01 7.25e+00 1.18e+01  -6.0 3.56e+03  -9.2 4.17e-01 1.72e-01h  1
 167 -2.4965172e-01 4.24e+00 1.02e+01  -6.0 1.55e+03  -9.6 4.55e-01 4.23e-01h  1
 168 -2.4978813e-01 3.72e+00 8.97e+00  -6.0 9.58e+02  -9.2 7.46e-03 1.24e-01h  1
 169 -2.5043742e-01 1.05e+01 2.67e+01  -6.0 3.13e+03  -9.7 4.41e-02 3.04e-01h  1
iter    objective    inf_pr   inf_du lg(mu)  ||d||  lg(rg) alpha_du alpha_pr  ls
 170 -2.5170185e-01 1.91e+01 5.33e+01  -6.0 1.22e+03  -9.3 1.53e-01 7.22e-01f  1
 171 -2.5227989e-01 1.90e+01 5.35e+01  -6.0 3.99e+03  -9.7 1.62e-02 6.13e-02h  1
 172 -2.5202943e-01 1.82e+01 5.13e+01  -6.0 4.48e+03 -10.2 1.01e-01 5.82e-02h  1
 173 -2.5313904e-01 2.18e+01 5.89e+01  -6.0 1.64e+03  -9.8 3.39e-02 6.96e-01h  1
 174 -2.5477468e-01 6.15e+00 1.13e+02  -6.0 1.29e+03 -10.3 1.74e-01 7.58e-01h  1
 175 -2.5499250e-01 5.62e+00 1.02e+02  -6.0 8.33e+02  -8.9 1.19e-01 8.67e-02h  1
 176 -2.5796118e-01 3.61e+01 1.16e+02  -6.0 3.38e+03  -9.4 1.02e-01 3.70e-01h  1
 177 -2.5795493e-01 3.56e+01 1.15e+02  -6.0 1.44e+03  -9.9 2.24e-02 1.23e-02h  1
 178 -2.5807143e-01 2.67e+01 8.62e+01  -6.0 1.01e+03 -10.4 6.84e-02 2.50e-01h  1
 179 -2.5840600e-01 1.75e+01 5.63e+01  -6.0 2.01e+03 -10.8 9.82e-02 3.47e-01h  1
iter    objective    inf_pr   inf_du lg(mu)  ||d||  lg(rg) alpha_du alpha_pr  ls
 180 -2.5869837e-01 1.82e+01 4.44e+01  -6.0 4.33e+03 -11.3 1.43e-01 3.76e-01h  1
 181 -2.5878615e-01 1.49e+01 2.93e+01  -6.0 4.01e+03    -  3.72e-01 2.02e-01h  1
 182 -2.5882259e-01 2.06e+01 3.18e+01  -6.0 1.99e+04 -11.8 1.35e-01 3.63e-02h  1
 183 -2.5890534e-01 1.98e+01 2.47e+01  -6.0 3.28e+03 -11.4 1.35e-01 8.62e-02h  1
 184 -2.5899328e-01 2.49e+01 2.24e+01  -6.0 1.34e+04    -  1.71e-01 9.16e-02h  1
 185 -2.5907492e-01 2.28e+01 2.26e+02  -6.0 1.87e+03    -  4.04e-01 9.16e-02h  1
 186 -2.5922860e-01 2.37e+01 1.57e+02  -6.0 2.81e+03    -  2.46e-01 2.57e-01h  1
 187 -2.5924989e-01 2.28e+01 1.92e+02  -6.0 3.20e+03    -  8.62e-02 5.94e-02h  1
 188 -2.5927570e-01 2.23e+01 1.39e+02  -6.0 3.24e+03    -  1.28e-01 1.49e-01h  1
 189 -2.5933471e-01 2.22e+01 1.13e+03  -6.0 2.37e+03    -  1.37e-01 3.17e-01h  1
iter    objective    inf_pr   inf_du lg(mu)  ||d||  lg(rg) alpha_du alpha_pr  ls
 190 -2.5934302e-01 2.16e+01 1.13e+03  -6.0 4.03e+03    -  2.48e-01 5.21e-02h  1
 191 -2.5939119e-01 2.25e+01 8.87e+02  -6.0 3.06e+03    -  3.28e-01 2.25e-01h  1
 192 -2.5941336e-01 2.08e+01 2.55e+03  -6.0 2.27e+03    -  3.85e-02 9.74e-02h  1
 193 -2.5951260e-01 1.95e+01 1.70e+03  -6.0 2.23e+03    -  9.64e-02 2.61e-01h  1
 194 -2.5955735e-01 1.56e+01 1.42e+03  -6.0 4.40e+02    -  6.77e-02 2.01e-01h  1
 195 -2.5970213e-01 6.50e+00 6.07e+02  -6.0 3.10e+02    -  2.27e-01 5.88e-01h  1
 196 -2.5998182e-01 1.29e+00 5.96e+02  -6.0 2.13e+02    -  6.75e-01 1.00e+00h  1
 197 -2.6003909e-01 1.12e+00 2.78e+03  -6.0 5.61e+02    -  5.61e-01 1.64e-01h  1
 198 -2.6008550e-01 9.55e-01 4.03e+03  -6.0 6.87e+02    -  5.20e-01 1.76e-01h  1
 199 -2.6011283e-01 8.65e-01 1.96e+03  -6.0 6.86e+02    -  4.79e-01 1.07e-01h  1
iter    objective    inf_pr   inf_du lg(mu)  ||d||  lg(rg) alpha_du alpha_pr  ls
 200 -2.6042085e-01 2.77e+01 1.32e+06  -6.0 1.52e+03 -10.9 4.33e-03 8.50e-01h  1
 201 -2.6057827e-01 3.08e+01 1.52e+05  -6.0 1.83e+03    -  4.83e-02 8.83e-01h  1
 202 -2.6077930e-01 9.91e+00 4.90e+04  -6.0 2.07e+02  -8.7 2.33e-01 6.78e-01h  1
 203 -2.6065564e-01 4.08e+00 1.06e+05  -6.0 2.23e+02  -9.2 1.38e-02 5.89e-01h  1
 204 -2.6056529e-01 3.68e-01 7.09e+01  -6.0 1.76e+02  -9.7 4.34e-03 1.00e+00h  1
 205 -2.6064407e-01 3.46e-01 3.24e-01  -6.0 5.63e+01  -9.2 1.00e+00 1.00e+00h  1
 206 -2.6079466e-01 8.25e-01 1.91e+01  -6.0 1.20e+02  -9.7 4.59e-01 1.00e+00h  1
 207 -2.6078496e-01 5.37e-01 8.15e+00  -6.0 3.58e+02 -10.2 8.21e-01 5.12e-01H  1
 208 -2.6075797e-01 2.07e-01 1.77e-02  -6.0 1.30e+02  -9.8 1.00e+00 1.00e+00h  1
 209 -2.6076026e-01 7.87e-02 4.26e-01  -6.0 3.58e+02 -10.2 1.00e+00 9.49e-01H  1
iter    objective    inf_pr   inf_du lg(mu)  ||d||  lg(rg) alpha_du alpha_pr  ls
 210 -2.6075465e-01 1.08e-01 1.13e-02  -6.0 5.31e+01  -9.8 1.00e+00 1.00e+00h  1
 211 -2.6075452e-01 1.45e-01 1.46e-03  -6.0 3.67e+01  -9.4 1.00e+00 1.00e+00h  1
 212 -2.6075317e-01 8.09e-01 3.70e-02  -6.0 2.02e+02  -9.9 1.00e+00 1.00e+00H  1
 213 -2.6075580e-01 4.55e-01 1.26e+01  -6.0 3.14e+02 -10.4 1.00e+00 4.33e-01h  2
 214 -2.6075537e-01 2.30e-01 2.76e+00  -6.0 1.54e+02  -9.9 9.97e-01 3.12e-01h  2
 215 -2.6075517e-01 2.68e-01 1.78e+01  -6.0 1.06e+03 -10.4 1.00e+00 7.24e-02h  2
 216 -2.6075158e-01 6.27e-01 1.37e+01  -6.0 3.91e+02    -  1.00e+00 4.38e-01h  2
 217 -2.6075051e-01 6.94e-01 3.14e+01  -6.0 1.89e+03    -  1.00e+00 9.13e-02h  2
 218 -2.6074732e-01 1.09e+00 1.18e+01  -6.0 7.27e+02    -  1.00e+00 3.17e-01h  2
 219 -2.6074474e-01 1.14e+00 5.22e+00  -6.0 4.42e+02    -  6.02e-01 5.24e-01h  1
iter    objective    inf_pr   inf_du lg(mu)  ||d||  lg(rg) alpha_du alpha_pr  ls
 220 -2.6074345e-01 9.59e-02 9.97e-03  -6.0 7.57e+01    -  1.00e+00 1.00e+00h  1
 221 -2.6074342e-01 1.37e-03 2.79e-05  -6.0 1.09e+01    -  1.00e+00 1.00e+00h  1
 222 -2.6074342e-01 3.51e-07 1.16e-08  -6.0 1.76e-01    -  1.00e+00 1.00e+00h  1
 223 -2.6122813e-01 1.39e+00 8.07e+01  -7.5 2.65e+03    -  5.02e-01 2.19e-01f  1
 224 -2.6141738e-01 3.76e+00 5.86e+01  -7.5 3.37e+03    -  3.06e-02 1.19e-01h  1
 225 -2.6145993e-01 3.56e+00 8.66e+01  -7.5 2.55e+02  -9.1 2.81e-01 5.45e-02h  1
 226 -2.6188676e-01 1.27e+01 4.83e+01  -7.5 2.55e+03    -  7.15e-04 3.73e-01h  1
 227 -2.6203838e-01 9.12e+00 7.14e+01  -7.5 1.85e+03    -  5.02e-01 2.82e-01h  1
 228 -2.6206927e-01 8.54e+00 1.18e+02  -7.5 1.58e+03    -  6.55e-01 7.43e-02h  1
 229 -2.6219499e-01 4.59e+00 5.71e+01  -7.5 1.64e+02  -9.6 1.42e-01 4.63e-01h  1
iter    objective    inf_pr   inf_du lg(mu)  ||d||  lg(rg) alpha_du alpha_pr  ls
 230 -2.6225563e-01 3.01e+00 4.34e+01  -7.5 2.91e+02 -10.0 9.71e-01 3.44e-01h  1
 231 -2.6236310e-01 1.43e+00 1.86e+01  -7.5 1.72e+03    -  3.52e-01 6.02e-01h  1
 232 -2.6239063e-01 7.92e-01 9.96e+00  -7.5 3.33e+02 -10.5 5.53e-01 4.49e-01h  1
 233 -2.6240362e-01 4.13e-01 4.39e+00  -7.5 5.22e+02 -11.0 1.00e+00 4.87e-01h  1
 234 -2.6241642e-01 1.67e+01 1.31e+00  -7.5 1.68e+03    -  1.35e-01 7.18e-01h  1
 235 -2.6240979e-01 1.94e+00 4.75e-01  -7.5 4.17e+02    -  1.43e-01 1.00e+00h  1
 236 -2.6241414e-01 3.37e-02 1.50e-01  -7.5 2.16e+01  -9.7 7.30e-01 1.00e+00h  1
 237 -2.6241453e-01 3.41e+00 4.79e-02  -7.5 5.27e+02    -  6.54e-01 7.79e-01h  1
 238 -2.6241400e-01 3.13e-01 8.54e-02  -7.5 1.13e+02    -  6.58e-02 1.00e+00h  1
 239 -2.6241395e-01 4.44e-03 2.25e-05  -7.5 1.08e+01 -10.1 1.00e+00 1.00e+00h  1
iter    objective    inf_pr   inf_du lg(mu)  ||d||  lg(rg) alpha_du alpha_pr  ls
 240 -2.6241413e-01 1.70e+00 3.56e-02  -7.5 2.67e+02    -  6.94e-01 1.00e+00h  1
 241 -2.6241413e-01 4.17e-03 8.36e-06  -7.5 1.77e+01 -10.6 1.00e+00 1.00e+00h  1
 242 -2.6241431e-01 6.23e+00 1.00e-01  -7.5 1.71e+04    -  5.39e-02 4.18e-02h  3
 243 -2.6241435e-01 5.00e-02 1.66e-04  -7.5 5.71e+01 -11.1 1.00e+00 1.00e+00h  1
 244 -2.6241440e-01 3.86e-01 6.34e-04  -7.5 1.76e+02 -11.6 1.00e+00 1.00e+00h  1
 245 -2.6241459e-01 4.05e+00 6.40e-03  -7.5 5.68e+02 -12.0 1.00e+00 1.00e+00h  1
 246 -2.6241572e-01 2.74e+01 5.35e-01  -7.5 2.10e+03 -12.5 6.63e-01 1.00e+00H  1
 247 -2.6241601e-01 2.65e+01 4.07e-01  -7.5 3.03e+03    -  3.95e-01 1.72e-01h  3
 248 -2.6241655e-01 1.13e+01 2.90e-02  -7.5 8.60e+02    -  1.00e+00 1.00e+00h  1
 249 -2.6241632e-01 2.16e+00 1.31e-01  -7.5 3.91e+02    -  3.63e-01 1.00e+00h  1
iter    objective    inf_pr   inf_du lg(mu)  ||d||  lg(rg) alpha_du alpha_pr  ls
 250 -2.6241665e-01 6.47e+00 3.75e-01  -7.5 1.22e+04 -12.1 8.13e-02 4.49e-02h  3
 251 -2.6241684e-01 1.38e+00 4.12e-03  -7.5 2.97e+02 -11.7 1.00e+00 1.00e+00h  1
 252 -2.6241728e-01 1.30e+00 3.29e-02  -7.5 6.34e+02    -  1.00e+00 1.00e+00H  1
 253 -2.6241727e-01 4.60e-04 6.60e-05  -7.5 6.72e+00    -  1.00e+00 1.00e+00h  1
 254 -2.6241727e-01 2.83e-06 9.91e-08  -7.5 4.24e-01    -  1.00e+00 1.00e+00h  1
 255 -2.6241727e-01 2.90e-10 5.40e-13  -7.5 1.44e-04    -  1.00e+00 1.00e+00h  1
 256 -2.6241977e-01 2.99e+00 2.45e+00  -9.0 1.70e+03    -  5.24e-01 2.58e-01h  1
 257 -2.6242185e-01 6.18e+01 1.29e+00  -9.0 5.71e+03    -  2.68e-01 3.41e-01h  1
 258 -2.6242274e-01 4.38e+01 5.94e-01  -9.0 1.56e+03    -  3.78e-01 4.23e-01h  1
 259 -2.6242315e-01 3.66e+01 3.73e-01  -9.0 1.85e+03    -  2.54e-01 2.81e-01h  1
iter    objective    inf_pr   inf_du lg(mu)  ||d||  lg(rg) alpha_du alpha_pr  ls
 260 -2.6242423e-01 1.00e+02 1.39e+01  -9.0 4.56e+03    -  3.28e-02 6.49e-01h  1
 261 -2.6242529e-01 4.83e+01 3.88e+01  -9.0 1.82e+03    -  9.40e-04 1.00e+00h  1
 262 -2.6242551e-01 9.27e+00 7.58e+00  -9.0 7.77e+02    -  1.15e-01 1.00e+00h  1
 263 -2.6242585e-01 1.79e+01 7.64e-01  -9.0 1.12e+03    -  4.28e-01 1.00e+00h  1
 264 -2.6242597e-01 8.59e+00 1.77e-01  -9.0 6.71e+02    -  7.60e-01 9.19e-01h  1
 265 -2.6242598e-01 8.58e+00 1.83e-01  -9.0 8.06e+03    -  2.03e-01 5.20e-03h  5
 266 -2.6242601e-01 8.55e+00 1.24e-01  -9.0 2.23e+03    -  9.12e-01 7.01e-02h  3
 267 -2.6242610e-01 8.75e+00 4.65e-02  -9.0 1.19e+03    -  9.92e-01 3.57e-01H  1
 268 -2.6242604e-01 1.42e+00 5.27e-02  -9.0 3.11e+02    -  4.77e-01 1.00e+00h  1
 269 -2.6242637e-01 3.60e+01 4.24e-02  -9.0 2.00e+03    -  9.90e-02 7.87e-01h  1
iter    objective    inf_pr   inf_du lg(mu)  ||d||  lg(rg) alpha_du alpha_pr  ls
 270 -2.6242632e-01 2.80e+01 3.46e-02  -9.0 1.06e+03    -  1.80e-01 2.50e-01h  3
 271 -2.6242634e-01 2.81e+01 3.29e-02  -9.0 3.26e+04    -  5.04e-02 2.97e-03h  5
 272 -2.6242638e-01 2.83e+01 4.31e-02  -9.0 1.50e+04    -  1.02e-01 1.29e-02h  4
 273 -2.6242649e-01 3.71e+00 2.75e-02  -9.0 4.61e+02 -12.1 2.71e-01 1.00e+00h  1
 274 -2.6242700e-01 5.09e+01 1.47e-02  -9.0 3.06e+03    -  3.77e-01 7.75e-01H  1
 275 -2.6242678e-01 1.84e+01 4.24e-03  -9.0 1.06e+03 -12.6 1.00e+00 1.00e+00h  1
 276 -2.6242687e-01 1.83e+01 1.17e-01  -9.0 2.38e+03    -  2.78e-01 1.87e-01h  3
 277 -2.6242688e-01 1.59e+01 8.86e-01  -9.0 1.33e+03 -13.1 1.00e+00 2.04e-01h  3
 278 -2.6242689e-01 1.58e+01 3.49e-02  -9.0 1.20e+04    -  4.77e-02 4.04e-03h  6
 279 -2.6242699e-01 7.75e+00 1.11e-03  -9.0 6.51e+02 -12.7 1.00e+00 1.00e+00h  1
iter    objective    inf_pr   inf_du lg(mu)  ||d||  lg(rg) alpha_du alpha_pr  ls
 280 -2.6242710e-01 2.28e+01 2.28e-01  -9.0 1.12e+03 -13.1 4.28e-01 1.00e+00h  1
 281 -2.6242702e-01 4.71e+00 1.23e+00  -9.0 4.68e+02    -  1.86e-01 1.00e+00h  1
 282 -2.6242700e-01 8.38e-01 8.65e-05  -9.0 8.45e+01    -  1.00e+00 1.00e+00h  1
 283 -2.6242704e-01 4.17e+00 1.47e-02  -9.0 2.89e+02    -  1.48e-01 1.00e+00h  1
 284 -2.6242704e-01 4.17e+00 4.46e-02  -9.0 3.69e+04    -  4.57e-02 8.63e-05h 10
 285 -2.6242704e-01 4.16e+00 1.91e-01  -9.0 7.84e+03    -  6.31e-01 3.26e-03h  7
 286 -2.6242716e-01 1.02e+01 2.75e-03  -9.0 9.55e+02    -  1.00e+00 1.00e+00H  1
 287 -2.6242734e-01 2.18e+00 4.67e-02  -9.0 1.29e+03    -  5.11e-01 1.00e+00H  1
 288 -2.6242730e-01 4.93e-01 6.14e-04  -9.0 1.53e+02    -  1.00e+00 1.00e+00h  1
 289 -2.6242730e-01 1.16e-02 4.76e-06  -9.0 2.27e+01    -  1.00e+00 1.00e+00h  1
iter    objective    inf_pr   inf_du lg(mu)  ||d||  lg(rg) alpha_du alpha_pr  ls
 290 -2.6242730e-01 6.23e-05 1.69e-08  -9.0 1.67e+00    -  1.00e+00 1.00e+00h  1
 291 -2.6242730e-01 2.82e-10 2.07e-14  -9.0 1.61e-04    -  1.00e+00 1.00e+00h  1

Number of Iterations....: 291

                                   (scaled)                 (unscaled)
Objective...............:  -2.6242729606551446e-01   -2.6242729606551446e-01
Dual infeasibility......:   2.0687758717877710e-14    2.0687758717877710e-14
Constraint violation....:   2.8238081404424742e-10    2.8238081404424742e-10
Complementarity.........:   9.0909092274657916e-10    9.0909092274657916e-10
Overall NLP error.......:   9.0909092274657916e-10    9.0909092274657916e-10


Number of objective function evaluations             = 935
Number of objective gradient evaluations             = 292
Number of equality constraint evaluations            = 935
Number of inequality constraint evaluations          = 936
Number of equality constraint Jacobian evaluations   = 293
Number of inequality constraint Jacobian evaluations = 293
Number of Lagrangian Hessian evaluations             = 291
Total CPU secs in IPOPT (w/o function evaluations)   =    652.905
Total CPU secs in NLP function evaluations           =     12.525

EXIT: Optimal Solution Found.
